c clasp version 2.1.1
c Reading from pb_200_07.cnf
c Solving...
s SATISFIABLE

c Models        : 1+    
c Time          : 2.977s (Solving: 2.25s 1st Model: 2.25s Unsat: 0.00s)
c CPU Time      : 2.960s
c Choices       : 61433
c Conflicts     : 8839
c Restarts      : 16     (Average: 552.44 Last: 612)

c Variables     : 195626 (Eliminated: 60401 Frozen:    0)
c Constraints   : 215130 (Binary: 65.6% Ternary: 33.0% Other:  1.4%)
c Lemmas        : 8839   (Binary:  0.2% Ternary:  1.5% Other: 98.3%)
c   Conflict    : 8839   (Average Length: 95.1) 
c   Loop        : 0      (Average Length: 0.0) 
c   Other       : 0      (Average Length: 0.0)
c   Deleted     : 0     
